<number of tasks>
35

<cycle time>
69

<task times>
1 29
2 3
3 5
4 22
5 6
6 14
7 2
8 5
9 22
10 30
11 23
12 30
13 23
14 2
15 19
16 29
17 2
18 2
19 19
20 29
21 6
22 10
23 16
24 23
25 5
26 5
27 5
28 40
29 2
30 5
31 5
32 1
33 40
34 2
35 2

<precedence relations>
1,2
1,5
1,10
1,12
2,3
3,4
4,11
5,6
6,7
6,8
7,14
7,18
8,9
9,13
10,14
11,28
11,33
12,18
13,28
13,33
14,15
15,16
16,21
17,20
18,19
19,20
20,21
21,22
21,25
21,30
22,23
23,24
24,27
25,26
26,27
27,28
27,33
27,34
28,29
30,31
31,32
32,33
33,35

<setup times forward>
1,2:2
1,5:1
1,10:1
1,17:2
2,3:3
2,5:1
2,6:3
2,7:2
2,8:4
2,9:1
2,10:3
2,12:2
2,13:1
2,15:5
2,16:5
2,18:3
2,19:1
2,22:4
2,23:1
2,24:3
2,25:3
2,26:4
2,27:5
2,30:2
2,34:2
3,4:2
3,5:2
3,7:1
3,8:1
3,9:2
3,12:1
3,13:2
3,14:3
3,15:2
3,16:2
3,17:3
3,19:2
3,20:3
3,21:3
3,22:1
3,23:2
3,26:1
3,27:2
3,30:1
3,31:3
3,32:3
3,34:1
4,6:2
4,7:1
4,8:3
4,10:2
4,11:4
4,12:1
4,14:1
4,15:4
4,16:4
4,17:1
4,18:2
4,20:1
4,21:1
4,22:3
4,24:2
4,25:2
4,26:3
4,27:4
4,30:1
4,31:1
4,32:1
4,34:1
5,2:1
5,3:2
5,6:2
5,10:2
5,11:4
5,12:1
5,17:1
6,2:3
6,4:2
6,7:1
6,8:1
6,11:2
6,12:1
6,17:3
7,2:2
7,3:1
7,4:1
7,8:2
7,9:1
7,10:1
7,11:3
7,13:1
7,14:2
7,17:2
7,18:1
8,2:4
8,3:1
8,4:3
8,7:2
8,9:3
8,10:1
8,11:1
8,12:2
8,14:4
8,15:1
8,16:1
8,17:4
8,18:1
8,19:3
8,20:4
8,21:4
8,23:3
8,24:1
8,25:1
8,27:1
8,30:2
8,31:4
8,32:4
8,34:2
9,2:1
9,3:2
9,7:1
9,10:2
9,11:4
9,12:1
9,14:1
9,15:4
9,16:4
9,17:1
9,18:2
9,20:1
9,21:1
9,22:3
9,24:2
9,25:2
9,26:3
9,27:4
9,30:1
9,31:1
9,32:1
9,34:1
10,2:3
10,4:2
10,5:2
10,7:1
10,8:1
10,9:2
10,11:2
10,12:1
10,13:2
10,14:3
10,17:3
10,19:2
10,20:3
11,5:4
11,6:2
11,7:3
11,8:1
11,9:4
11,10:2
11,12:3
11,13:4
11,14:5
11,17:5
11,18:2
11,19:4
11,20:5
11,21:5
11,22:1
11,23:4
11,24:2
11,25:2
11,26:1
11,28:4
11,30:3
11,31:5
11,32:5
11,33:3
11,34:3
12,2:2
12,3:1
12,4:1
12,5:1
12,6:1
12,8:2
12,9:1
12,10:1
12,11:3
12,13:1
12,14:2
12,15:3
12,16:3
12,17:2
12,18:1
13,2:1
13,3:2
13,7:1
13,10:2
13,11:4
13,12:1
13,14:1
13,15:4
13,16:4
13,17:1
13,18:2
13,20:1
13,21:1
13,22:3
13,24:2
13,25:2
13,26:3
13,27:4
13,30:1
13,31:1
13,32:1
13,33:1
13,34:1
14,3:3
14,4:1
14,8:4
14,9:1
14,11:5
14,12:2
14,13:1
14,15:5
14,18:3
14,19:1
15,2:5
15,3:2
15,4:4
15,8:1
15,9:4
15,12:3
15,13:4
15,17:5
15,18:2
15,19:4
15,20:5
16,2:5
16,3:2
16,4:4
16,8:1
16,9:4
16,12:3
16,13:4
16,17:5
16,18:2
16,19:4
16,20:5
16,21:5
17,1:2
17,3:3
17,4:1
17,5:1
17,6:3
17,7:2
17,8:4
17,9:1
17,10:3
17,11:5
17,12:2
17,13:1
17,15:5
17,16:5
17,18:3
17,19:1
18,2:3
18,4:2
18,8:1
18,9:2
18,11:2
18,13:2
18,14:3
18,15:2
18,16:2
18,17:3
18,19:2
19,2:1
19,3:2
19,8:3
19,10:2
19,11:4
19,14:1
19,15:4
19,16:4
19,17:1
19,20:1
20,3:3
20,4:1
20,8:4
20,9:1
20,10:3
20,11:5
20,13:1
20,15:5
20,16:5
21,3:3
21,4:1
21,8:4
21,9:1
21,11:5
21,13:1
21,22:4
21,25:3
21,30:2
22,2:4
22,3:1
22,4:3
22,9:3
22,11:1
22,13:3
22,23:3
22,25:1
22,30:2
22,31:4
22,32:4
23,2:1
23,3:2
23,8:3
23,11:4
23,24:2
23,25:2
23,26:3
23,30:1
23,31:1
23,32:1
24,2:3
24,4:2
24,8:1
24,9:2
24,11:2
24,13:2
24,26:1
24,27:2
24,30:1
24,31:3
24,32:3
25,2:3
25,4:2
25,8:1
25,9:2
25,11:2
25,13:2
25,22:1
25,23:2
25,26:1
25,30:1
25,31:3
25,32:3
26,2:4
26,3:1
26,4:3
26,9:3
26,11:1
26,13:3
26,23:3
26,24:1
26,27:1
26,30:2
26,31:4
26,32:4
27,2:5
27,3:2
27,4:4
27,8:1
27,9:4
27,13:4
27,28:4
27,30:3
27,31:5
27,32:5
27,33:3
27,34:3
28,29:4
28,30:1
28,31:1
28,32:1
28,33:1
28,34:1
28,35:4
29,30:3
29,31:5
29,32:5
29,33:3
29,34:3
30,2:2
30,3:1
30,4:1
30,8:2
30,9:1
30,11:3
30,13:1
30,22:2
30,23:1
30,24:1
30,25:1
30,26:2
30,27:3
30,28:1
30,29:3
30,31:2
31,3:3
31,4:1
31,8:4
31,9:1
31,11:5
31,13:1
31,22:4
31,23:1
31,24:3
31,25:3
31,26:4
31,27:5
31,28:1
31,29:5
31,34:2
32,3:3
32,4:1
32,8:4
32,9:1
32,11:5
32,13:1
32,22:4
32,23:1
32,24:3
32,25:3
32,26:4
32,27:5
32,28:1
32,29:5
32,33:2
32,34:2
33,28:1
33,29:3
33,35:3
34,2:2
34,3:1
34,4:1
34,8:2
34,9:1
34,11:3
34,13:1
34,28:1
34,29:3
34,31:2
34,32:2
34,35:3
35,28:4
35,34:3

<setup times backward>
1,1:6
1,17:4
2,1:8
2,2:6
2,5:7
2,6:9
2,7:8
2,8:10
2,9:7
2,10:9
2,12:8
2,13:7
2,14:6
2,15:11
2,16:11
2,17:6
2,18:9
2,19:7
2,20:6
2,21:6
2,22:10
2,23:7
2,24:9
2,25:9
2,26:10
2,27:11
2,30:8
2,31:6
2,32:6
2,34:8
3,1:5
3,2:3
3,3:6
3,5:4
3,6:6
3,7:5
3,8:7
3,9:4
3,10:6
3,12:5
3,13:4
3,14:3
3,15:8
3,16:8
3,17:3
3,18:6
3,19:4
3,20:3
3,21:3
3,22:7
3,23:4
3,24:6
3,25:6
3,26:7
3,27:8
3,30:5
3,31:3
3,32:3
3,34:5
4,1:7
4,2:5
4,3:8
4,4:6
4,5:6
4,6:8
4,7:7
4,8:9
4,9:6
4,10:8
4,12:7
4,13:6
4,14:5
4,15:10
4,16:10
4,17:5
4,18:8
4,19:6
4,20:5
4,21:5
4,22:9
4,23:6
4,24:8
4,25:8
4,26:9
4,27:10
4,30:7
4,31:5
4,32:5
4,34:7
5,1:7
5,2:5
5,3:8
5,4:6
5,5:6
5,10:8
5,11:10
5,12:7
5,17:5
6,1:5
6,2:3
6,3:6
6,4:4
6,5:4
6,6:6
6,10:6
6,11:8
6,12:5
6,17:3
7,1:6
7,2:4
7,3:7
7,4:5
7,5:5
7,6:7
7,7:6
7,8:8
7,9:5
7,10:7
7,11:9
7,12:6
7,13:5
7,17:4
8,1:4
8,2:2
8,3:5
8,4:3
8,5:3
8,6:5
8,7:4
8,8:6
8,10:5
8,11:7
8,12:4
8,14:2
8,15:7
8,16:7
8,17:2
8,18:5
8,19:3
8,20:2
8,21:2
8,22:6
8,23:3
8,24:5
8,25:5
8,26:6
8,27:7
8,30:4
8,31:2
8,32:2
8,34:4
9,1:7
9,2:5
9,3:8
9,4:6
9,5:6
9,6:8
9,7:7
9,8:9
9,9:6
9,10:8
9,11:10
9,12:7
9,14:5
9,15:10
9,16:10
9,17:5
9,18:8
9,19:6
9,20:5
9,21:5
9,22:9
9,23:6
9,24:8
9,25:8
9,26:9
9,27:10
9,30:7
9,31:5
9,32:5
9,34:7
10,1:5
10,2:3
10,3:6
10,4:4
10,5:4
10,6:6
10,7:5
10,8:7
10,9:4
10,10:6
10,11:8
10,12:5
10,13:4
10,17:3
10,18:6
10,19:4
10,20:3
11,1:3
11,2:1
11,3:4
11,4:2
11,5:2
11,6:4
11,7:3
11,8:5
11,9:2
11,10:4
11,11:6
11,12:3
11,13:2
11,14:1
11,15:6
11,16:6
11,17:1
11,18:4
11,19:2
11,20:1
11,21:1
11,22:5
11,23:2
11,24:4
11,25:4
11,26:5
11,27:6
11,30:3
11,31:1
11,32:1
11,34:3
12,1:6
12,2:4
12,3:7
12,4:5
12,5:5
12,6:7
12,7:6
12,8:8
12,9:5
12,10:7
12,11:9
12,12:6
12,13:5
12,14:4
12,15:9
12,16:9
12,17:4
13,1:7
13,2:5
13,3:8
13,4:6
13,5:6
13,6:8
13,7:7
13,8:9
13,9:6
13,10:8
13,11:10
13,12:7
13,13:6
13,14:5
13,15:10
13,16:10
13,17:5
13,18:8
13,19:6
13,20:5
13,21:5
13,22:9
13,23:6
13,24:8
13,25:8
13,26:9
13,27:10
13,30:7
13,31:5
13,32:5
13,34:7
14,1:8
14,2:6
14,3:9
14,4:7
14,5:7
14,6:9
14,7:8
14,8:10
14,9:7
14,10:9
14,11:11
14,12:8
14,13:7
14,14:6
14,17:6
14,18:9
14,19:7
14,20:6
15,1:3
15,2:1
15,3:4
15,4:2
15,5:2
15,6:4
15,7:3
15,8:5
15,9:2
15,10:4
15,11:6
15,12:3
15,13:2
15,14:1
15,15:6
15,17:1
15,18:4
15,19:2
15,20:1
16,1:3
16,2:1
16,3:4
16,4:2
16,5:2
16,6:4
16,7:3
16,8:5
16,9:2
16,10:4
16,11:6
16,12:3
16,13:2
16,14:1
16,15:6
16,16:6
16,17:1
16,18:4
16,19:2
16,20:1
17,1:8
17,2:6
17,3:9
17,4:7
17,5:7
17,6:9
17,7:8
17,8:10
17,9:7
17,10:9
17,11:11
17,12:8
17,13:7
17,14:6
17,15:11
17,16:11
17,17:6
17,18:9
17,19:7
18,1:5
18,2:3
18,3:6
18,4:4
18,5:4
18,6:6
18,7:5
18,8:7
18,9:4
18,10:6
18,11:8
18,12:5
18,13:4
18,14:3
18,15:8
18,16:8
18,17:3
18,18:6
19,1:7
19,2:5
19,3:8
19,4:6
19,5:6
19,6:8
19,7:7
19,8:9
19,9:6
19,10:8
19,11:10
19,12:7
19,13:6
19,14:5
19,15:10
19,16:10
19,17:5
19,18:8
19,19:6
20,1:8
20,2:6
20,3:9
20,4:7
20,5:7
20,6:9
20,7:8
20,8:10
20,9:7
20,10:9
20,11:11
20,12:8
20,13:7
20,14:6
20,15:11
20,16:11
20,17:6
20,18:9
20,19:7
20,20:6
21,1:8
21,2:6
21,3:9
21,4:7
21,5:7
21,6:9
21,7:8
21,8:10
21,9:7
21,10:9
21,11:11
21,12:8
21,13:7
21,14:6
21,15:11
21,16:11
21,17:6
21,18:9
21,19:7
21,20:6
21,21:6
22,1:4
22,2:2
22,3:5
22,4:3
22,5:3
22,6:5
22,7:4
22,8:6
22,9:3
22,10:5
22,11:7
22,12:4
22,13:3
22,14:2
22,15:7
22,16:7
22,17:2
22,18:5
22,19:3
22,20:2
22,21:2
22,22:6
22,25:5
22,26:6
22,30:4
22,31:2
22,32:2
23,1:7
23,2:5
23,3:8
23,4:6
23,5:6
23,6:8
23,7:7
23,8:9
23,9:6
23,10:8
23,11:10
23,12:7
23,13:6
23,14:5
23,15:10
23,16:10
23,17:5
23,18:8
23,19:6
23,20:5
23,21:5
23,22:9
23,23:6
23,25:8
23,26:9
23,30:7
23,31:5
23,32:5
24,1:5
24,2:3
24,3:6
24,4:4
24,5:4
24,6:6
24,7:5
24,8:7
24,9:4
24,10:6
24,11:8
24,12:5
24,13:4
24,14:3
24,15:8
24,16:8
24,17:3
24,18:6
24,19:4
24,20:3
24,21:3
24,22:7
24,23:4
24,24:6
24,25:6
24,26:7
24,30:5
24,31:3
24,32:3
25,1:5
25,2:3
25,3:6
25,4:4
25,5:4
25,6:6
25,7:5
25,8:7
25,9:4
25,10:6
25,11:8
25,12:5
25,13:4
25,14:3
25,15:8
25,16:8
25,17:3
25,18:6
25,19:4
25,20:3
25,21:3
25,22:7
25,23:4
25,24:6
25,25:6
25,30:5
25,31:3
25,32:3
26,1:4
26,2:2
26,3:5
26,4:3
26,5:3
26,6:5
26,7:4
26,8:6
26,9:3
26,10:5
26,11:7
26,12:4
26,13:3
26,14:2
26,15:7
26,16:7
26,17:2
26,18:5
26,19:3
26,20:2
26,21:2
26,22:6
26,23:3
26,24:5
26,25:5
26,26:6
26,30:4
26,31:2
26,32:2
27,1:3
27,2:1
27,3:4
27,4:2
27,5:2
27,6:4
27,7:3
27,8:5
27,9:2
27,10:4
27,11:6
27,12:3
27,13:2
27,14:1
27,15:6
27,16:6
27,17:1
27,18:4
27,19:2
27,20:1
27,21:1
27,22:5
27,23:2
27,24:4
27,25:4
27,26:5
27,27:6
27,30:3
27,31:1
27,32:1
28,1:7
28,2:5
28,3:8
28,4:6
28,5:6
28,6:8
28,7:7
28,8:9
28,9:6
28,10:8
28,11:10
28,12:7
28,13:6
28,14:5
28,15:10
28,16:10
28,17:5
28,18:8
28,19:6
28,20:5
28,21:5
28,22:9
28,23:6
28,24:8
28,25:8
28,26:9
28,27:10
28,28:6
28,30:7
28,31:5
28,32:5
28,33:7
28,34:7
28,35:10
29,1:3
29,2:1
29,3:4
29,4:2
29,5:2
29,6:4
29,7:3
29,8:5
29,9:2
29,10:4
29,11:6
29,12:3
29,13:2
29,14:1
29,15:6
29,16:6
29,17:1
29,18:4
29,19:2
29,20:1
29,21:1
29,22:5
29,23:2
29,24:4
29,25:4
29,26:5
29,27:6
29,28:2
29,29:6
29,30:3
29,31:1
29,32:1
29,33:3
29,34:3
29,35:6
30,1:6
30,2:4
30,3:7
30,4:5
30,5:5
30,6:7
30,7:6
30,8:8
30,9:5
30,10:7
30,11:9
30,12:6
30,13:5
30,14:4
30,15:9
30,16:9
30,17:4
30,18:7
30,19:5
30,20:4
30,21:4
30,22:8
30,23:5
30,24:7
30,25:7
30,26:8
30,27:9
30,28:5
30,29:9
30,30:6
30,34:6
31,1:8
31,2:6
31,3:9
31,4:7
31,5:7
31,6:9
31,7:8
31,8:10
31,9:7
31,10:9
31,11:11
31,12:8
31,13:7
31,14:6
31,15:11
31,16:11
31,17:6
31,18:9
31,19:7
31,20:6
31,21:6
31,22:10
31,23:7
31,24:9
31,25:9
31,26:10
31,27:11
31,28:7
31,29:11
31,30:8
31,31:6
31,34:8
32,1:8
32,2:6
32,3:9
32,4:7
32,5:7
32,6:9
32,7:8
32,8:10
32,9:7
32,10:9
32,11:11
32,12:8
32,13:7
32,14:6
32,15:11
32,16:11
32,17:6
32,18:9
32,19:7
32,20:6
32,21:6
32,22:10
32,23:7
32,24:9
32,25:9
32,26:10
32,27:11
32,28:7
32,29:11
32,30:8
32,31:6
32,32:6
32,34:8
33,1:6
33,2:4
33,3:7
33,4:5
33,5:5
33,6:7
33,7:6
33,8:8
33,9:5
33,10:7
33,11:9
33,12:6
33,13:5
33,14:4
33,15:9
33,16:9
33,17:4
33,18:7
33,19:5
33,20:4
33,21:4
33,22:8
33,23:5
33,24:7
33,25:7
33,26:8
33,27:9
33,28:5
33,29:9
33,30:6
33,31:4
33,32:4
33,33:6
33,34:6
34,1:6
34,2:4
34,3:7
34,4:5
34,5:5
34,6:7
34,7:6
34,8:8
34,9:5
34,10:7
34,11:9
34,12:6
34,13:5
34,14:4
34,15:9
34,16:9
34,17:4
34,18:7
34,19:5
34,20:4
34,21:4
34,22:8
34,23:5
34,24:7
34,25:7
34,26:8
34,27:9
34,28:5
34,29:9
34,30:6
34,31:4
34,32:4
34,33:6
34,34:6
34,35:9
35,1:3
35,2:1
35,3:4
35,4:2
35,5:2
35,6:4
35,7:3
35,8:5
35,9:2
35,10:4
35,11:6
35,12:3
35,13:2
35,14:1
35,15:6
35,16:6
35,17:1
35,18:4
35,19:2
35,20:1
35,21:1
35,22:5
35,23:2
35,24:4
35,25:4
35,26:5
35,27:6
35,28:2
35,29:6
35,30:3
35,31:1
35,32:1
35,33:3
35,34:3
35,35:6

<end>

<optimal SALBP-1 value>
8


<rand seed>
467321153

<Lower Bounds>
Lm1=7
Lms1=7
Lm2=2
Lm3=5
Lm4=8
Best=8

<Optimal Stations (Iterations: 10)>
10
